c read Graph
c width = 6
c time = 23 ms
c width = 1
c time = 42 ms
c width = 1
c time = 4921 ms
s td 444 2 561
b 1 1 450
b 2 2
b 3 430 431
b 4 3 431
b 5 172 173
b 6 4 172
b 7 5 162
b 8 170 171
b 9 5 171
b 10 276 277
b 11 5 276
b 12 6
b 13 7 387
b 14 240 241
b 15 7 240
b 16 8 306
b 17 9
b 18 10
b 19 11
b 20 12
b 21 280 281
b 22 13 280
b 23 13 251
b 24 13 462
b 25 14
b 26 16 163
b 27 16 129
b 28 128 129
b 29 15 128
b 30 17 362
b 31 418 419
b 32 17 418
b 33 18 370
b 34 19 268
b 35 20 269
b 36 21
b 37 242 243
b 38 22 243
b 39 482 483
b 40 22 483
b 41 23
b 42 24 465
b 43 25 473
b 44 26 559
b 45 26 509
b 46 26 542
b 47 38 294
b 48 38 561
b 49 38 301
b 50 300 301
b 51 27 300
b 52 27 397
b 53 312 313
b 54 28 312
b 55 28 152
b 56 29 270
b 57 30 340
b 58 30 285
b 59 31 378
b 60 31 341
b 61 31 244
b 62 32
b 63 374 375
b 64 33 375
b 65 34 252
b 66 35 262
b 67 36 154
b 68 36 556
b 69 37 560
b 70 39 342
b 71 39 514
b 72 40 513
b 73 41
b 74 42 379
b 75 42 254
b 76 43
b 77 358 359
b 78 44 358
b 79 322 323
b 80 44 323
b 81 192 193
b 82 45 192
b 83 57 181
b 84 57 391
b 85 390 391
b 86 46 390
b 87 380 381
b 88 46 381
b 89 47 155
b 90 48 523
b 91 184 185
b 92 48 185
b 93 49 454
b 94 130 131
b 95 50 130
b 96 50 474
b 97 50 257
b 98 51 432
b 99 51 174
b 100 51 145
b 101 52 538
b 102 52 394
b 103 53
b 104 55 335
b 105 334 335
b 106 54 334
b 107 178 179
b 108 54 179
b 109 56 180
b 110 58 274
b 111 58 167
b 112 59
b 113 60 302
b 114 61 202
b 115 62
b 116 296 297
b 117 63 297
b 118 64
b 119 434 435
b 120 65 435
b 121 66 209
b 122 67 411
b 123 524 525
b 124 68 525
b 125 272 273
b 126 68 272
b 127 69
b 128 70 406
b 129 528 529
b 130 71 529
b 131 72 246
b 132 72 384
b 133 73 205
b 134 73 550
b 135 73 554
b 136 74
b 137 75 503
b 138 76 532
b 139 77 361
b 140 77 365
b 141 78
b 142 248 249
b 143 79 248
b 144 79 221
b 145 80
b 146 81 456
b 147 82 169
b 148 83 308
b 149 83 126
b 150 84
b 151 85 304
b 152 140 141
b 153 85 141
b 154 86 232
b 155 87 216
b 156 99 402
b 157 99 519
b 158 518 519
b 159 88 518
b 160 89
b 161 90
b 162 91 481
b 163 92 338
b 164 478 479
b 165 92 479
b 166 92 457
b 167 494 495
b 168 93 495
b 169 94 124
b 170 94 127
b 171 95 125
b 172 96 320
b 173 366 367
b 174 97 366
b 175 97 321
b 176 98 210
b 177 98 497
b 178 98 266
b 179 100 442
b 180 101 222
b 181 102 316
b 182 103 318
b 183 103 315
b 184 350 351
b 185 104 351
b 186 468 469
b 187 104 469
b 188 328 329
b 189 105 329
b 190 105 376
b 191 106 470
b 192 106 507
b 193 107
b 194 108 393
b 195 108 405
b 196 540 541
b 197 108 540
b 198 109 267
b 199 110 403
b 200 110 352
b 201 111 190
b 202 111 443
b 203 112 438
b 204 112 223
b 205 114 319
b 206 114 227
b 207 226 227
b 208 113 226
b 209 113 439
b 210 476 477
b 211 115 477
b 212 116 377
b 213 117
b 214 118
b 215 119 135
b 216 120 427
b 217 120 409
b 218 121
b 219 122
b 220 123
b 221 132
b 222 133
b 223 134
b 224 136
b 225 137
b 226 138 139
b 227 142 143
b 228 144
b 229 146
b 230 147
b 231 148
b 232 149
b 233 150
b 234 151
b 235 153
b 236 156
b 237 157
b 238 158 159
b 239 160
b 240 161
b 241 164 165
b 242 166
b 243 168
b 244 175
b 245 176 177
b 246 182
b 247 183
b 248 186
b 249 187
b 250 188
b 251 189
b 252 191
b 253 194 195
b 254 196
b 255 197
b 256 198
b 257 199
b 258 200
b 259 201
b 260 203
b 261 204
b 262 206
b 263 207
b 264 208
b 265 211
b 266 212
b 267 213
b 268 214
b 269 215
b 270 217
b 271 218 219
b 272 220
b 273 224
b 274 225
b 275 228
b 276 229
b 277 230
b 278 231
b 279 233
b 280 234
b 281 235
b 282 236 237
b 283 238 239
b 284 245
b 285 247
b 286 250
b 287 253
b 288 255
b 289 256
b 290 258 259
b 291 260
b 292 261
b 293 263
b 294 264
b 295 265
b 296 271
b 297 275
b 298 278
b 299 279
b 300 282 283
b 301 284
b 302 286
b 303 287
b 304 288
b 305 289
b 306 290 291
b 307 292
b 308 293
b 309 295
b 310 298 299
b 311 303
b 312 305
b 313 307
b 314 309
b 315 310
b 316 311
b 317 314
b 318 317
b 319 324
b 320 325
b 321 326
b 322 327
b 323 330
b 324 331
b 325 332
b 326 333
b 327 336 337
b 328 339
b 329 343
b 330 344
b 331 345
b 332 346 347
b 333 348
b 334 349
b 335 353
b 336 354
b 337 355
b 338 356
b 339 357
b 340 360
b 341 363
b 342 364
b 343 368
b 344 369
b 345 371
b 346 372 373
b 347 382
b 348 383
b 349 385
b 350 386
b 351 388
b 352 389
b 353 392
b 354 395
b 355 396
b 356 398
b 357 399
b 358 400
b 359 401
b 360 404
b 361 407
b 362 408
b 363 410
b 364 412
b 365 413
b 366 414
b 367 415
b 368 416
b 369 417
b 370 420 421
b 371 422
b 372 423
b 373 424 425
b 374 426
b 375 428
b 376 429
b 377 433
b 378 436
b 379 437
b 380 440 441
b 381 444
b 382 445
b 383 446
b 384 447
b 385 448 449
b 386 451
b 387 452
b 388 453
b 389 455
b 390 458 459
b 391 460
b 392 461
b 393 463
b 394 464
b 395 466 467
b 396 471
b 397 472
b 398 475
b 399 480
b 400 484
b 401 485
b 402 486
b 403 487
b 404 488 489
b 405 490
b 406 491
b 407 492
b 408 493
b 409 496
b 410 498 499
b 411 500
b 412 501
b 413 502
b 414 504 505
b 415 506
b 416 508
b 417 510
b 418 511
b 419 512
b 420 515
b 421 516 517
b 422 520
b 423 521
b 424 522
b 425 526
b 426 527
b 427 530 531
b 428 533
b 429 534
b 430 535
b 431 536 537
b 432 539
b 433 543
b 434 544
b 435 545
b 436 546
b 437 547
b 438 548
b 439 549
b 440 551
b 441 552 553
b 442 555
b 443 557
b 444 558
1 2
1 3
1 5
1 7
1 12
1 13
1 16
1 17
1 18
1 19
1 20
1 21
1 25
1 26
1 30
1 33
1 34
1 35
1 36
1 37
1 41
1 42
1 43
1 44
1 47
1 53
1 56
1 57
1 59
1 62
1 63
1 65
1 66
1 67
1 69
1 70
1 72
1 73
1 74
1 76
1 77
1 81
1 83
1 89
1 90
1 93
1 94
1 98
1 101
1 103
1 104
1 109
1 110
1 112
1 113
1 114
1 115
1 116
1 118
1 119
1 121
1 122
1 123
1 127
1 128
1 129
1 131
1 133
1 136
1 137
1 138
1 139
1 141
1 142
1 145
1 146
1 147
1 148
1 150
1 151
1 154
1 155
1 156
1 160
1 161
1 162
1 163
1 167
1 169
1 171
1 172
1 173
1 176
1 179
1 180
1 181
1 182
1 184
1 188
1 191
1 193
1 194
1 198
1 199
1 201
1 203
1 205
1 210
1 212
1 213
1 214
1 215
1 216
1 218
1 219
1 220
1 221
1 222
1 223
1 224
1 225
1 226
1 227
1 228
1 229
1 230
1 231
1 232
1 233
1 234
1 235
1 236
1 237
1 238
1 239
1 240
1 241
1 242
1 243
1 244
1 245
1 246
1 247
1 248
1 249
1 250
1 251
1 252
1 253
1 254
1 255
1 256
1 257
1 258
1 259
1 260
1 261
1 262
1 263
1 264
1 265
1 266
1 267
1 268
1 269
1 270
1 271
1 272
1 273
1 274
1 275
1 276
1 277
1 278
1 279
1 280
1 281
1 282
1 283
1 284
1 285
1 286
1 287
1 288
1 289
1 290
1 291
1 292
1 293
1 294
1 295
1 296
1 297
1 298
1 299
1 300
1 301
1 302
1 303
1 304
1 305
1 306
1 307
1 308
1 309
1 310
1 311
1 312
1 313
1 314
1 315
1 316
1 317
1 318
1 319
1 320
1 321
1 322
1 323
1 324
1 325
1 326
1 327
1 328
1 329
1 330
1 331
1 332
1 333
1 334
1 335
1 336
1 337
1 338
1 339
1 340
1 341
1 342
1 343
1 344
1 345
1 346
1 347
1 348
1 349
1 350
1 351
1 352
1 353
1 354
1 355
1 356
1 357
1 358
1 359
1 360
1 361
1 362
1 363
1 364
1 365
1 366
1 367
1 368
1 369
1 370
1 371
1 372
1 373
1 374
1 375
1 376
1 377
1 378
1 379
1 380
1 381
1 382
1 383
1 384
1 385
1 386
1 387
1 388
1 389
1 390
1 391
1 392
1 393
1 394
1 395
1 396
1 397
1 398
1 399
1 400
1 401
1 402
1 403
1 404
1 405
1 406
1 407
1 408
1 409
1 410
1 411
1 412
1 413
1 414
1 415
1 416
1 417
1 418
1 419
1 420
1 421
1 422
1 423
1 424
1 425
1 426
1 427
1 428
1 429
1 430
1 431
1 432
1 433
1 434
1 435
1 436
1 437
1 438
1 439
1 440
1 441
1 442
1 443
1 444
3 4
5 6
7 9
7 11
8 9
10 11
13 15
14 15
21 22
22 23
22 24
26 27
27 28
28 29
30 32
31 32
37 38
38 40
39 40
44 45
44 46
47 48
47 49
49 50
50 51
51 52
53 54
54 55
57 58
59 60
59 61
63 64
67 68
70 71
74 75
77 78
78 80
79 80
81 82
83 84
84 85
85 86
86 88
87 88
90 92
91 92
94 95
95 96
95 97
98 99
98 100
101 102
104 105
105 106
106 108
107 108
110 111
116 117
119 120
123 124
124 126
125 126
129 130
131 132
133 134
133 135
139 140
142 143
143 144
148 149
151 153
152 153
156 157
157 158
158 159
163 165
163 166
164 165
167 168
169 170
173 174
174 175
176 177
176 178
182 183
184 185
185 187
186 187
188 189
189 190
191 192
194 195
194 197
196 197
199 200
201 202
203 204
205 206
206 207
207 208
208 209
210 211
216 217
